silicene
 1.00000000
   3.86100006   0.00000000   0.00000000
   -1.93050003   3.34372414   0.00000000
   0.00000000   0.00000000   19.99998093
   Si
   2
Direct
  0.27650221  0.75470129  0.48003648
  -0.39016446  -0.57863204  0.44509481
