WebMO-generated system:    H   O
1.0
  10.0000000  0.00000000  0.00000000
  0.00000000  10.0000000  0.00000000
  0.00000000  0.00000000  10.0000000
  H   O
   2   1
Direct
  0.41890000  0.51755333  0.50000000
  0.58110000  0.51755333  0.50000000
  0.50000000  0.46489333  0.50000000
