graphene a = 2.700000
1.0
        7.3913998604         0.0000000000         0.0000000000
       -3.6956998112         6.4011004738         0.0000000000
        0.0000000000         0.0000000000        24.6380004883
    C
   18
Cartesian
     0.000000000         0.000000000         0.000000000
    -1.231899974         2.133700222         0.000000000
    -2.463799948         4.267400443         0.000000000
     2.463800027         0.000000000         0.000000000
     1.231900053         2.133700222         0.000000000
     0.000000079         4.267400443         0.000000000
     4.927600054         0.000000000         0.000000000
     3.695700080         2.133700222         0.000000000
     2.463800106         4.267400443         0.000000000
    -0.000000029         1.422466783         0.000000000
    -1.231900057         3.556167099         0.000000000
    -2.463799921         5.689867130         0.000000000
     2.463799998         1.422466783         0.000000000
     1.231899969         3.556167099         0.000000000
     0.000000106         5.689867130         0.000000000
     4.927600025         1.422466783         0.000000000
     3.695699996         3.556167099         0.000000000
     2.463800133         5.689867130         0.000000000
