graphene a = 2.700000
1.0
        7.3913998604         0.0000000000         0.0000000000
       -3.6956998112         6.4011004738         0.0000000000
        0.0000000000         0.0000000000        24.6380004883
    C
   18
Direct
     0.000000000         0.000000000         0.000000000
     0.000000000         0.333333343         0.000000000
     0.000000000         0.666666687         0.000000000
     0.333333343         0.000000000         0.000000000
     0.333333343         0.333333343         0.000000000
     0.333333343         0.666666687         0.000000000
     0.666666687         0.000000000         0.000000000
     0.666666687         0.333333343         0.000000000
     0.666666687         0.666666687         0.000000000
     0.111111104         0.222222224         0.000000000
     0.111111104         0.555555582         0.000000000
     0.111111104         0.888888896         0.000000000
     0.444444448         0.222222224         0.000000000
     0.444444448         0.555555582         0.000000000
     0.444444448         0.888888896         0.000000000
     0.777777791         0.222222224         0.000000000
     0.777777791         0.555555582         0.000000000
     0.777777791         0.888888896         0.000000000
