graphene a = 2.700000
 1.00000000
   7.39139986   0.00000000   0.00000000
   -3.69569981   6.40110047   0.00000000
   0.00000000   0.00000000   24.63800049
   H   C   O
   2   18   1
Direct
  0.39486574  0.64952633  0.09052963
  0.61430997  0.64952633  0.09052963
  0.00000000  0.00000000  0.00000000
  0.00000000  0.33333334  0.00000000
  -0.00000000  0.66666669  0.00000000
  0.33333334  0.00000000  0.00000000
  0.33333334  0.33333334  0.00000000
  0.33333334  0.66666669  0.00000000
  0.66666669  0.00000000  0.00000000
  0.66666669  0.33333334  0.00000000
  0.66666669  0.66666669  0.00000000
  0.11111110  0.22222222  0.00000000
  0.11111110  0.55555558  0.00000000
  0.11111110  0.88888890  0.00000000
  0.44444445  0.22222222  0.00000000
  0.44444445  0.55555558  0.00000000
  0.44444445  0.88888890  0.00000000
  0.77777779  0.22222222  0.00000000
  0.77777779  0.55555558  0.00000000
  0.77777779  0.88888890  0.00000000
  0.46345431  0.56725922  0.09052963
